532 533 489 490 486 488 534 188 187 178 177 176 540 538 539 537 536 535 487 485 484 483 481 482 475 476 480 479 477 478 548 549 560 561 562 563 564 565 566 567 474 473 472 471 470 469 468 467 466 460 0 1 2 3 4 5 6 572 573 571 570 569 568 20 19 18 17 8 7 9 10 11 16 15 14 13 12 23 22 21 24 25 26 27 28 29 31 30 32 33 34 35 36 37 38 40 41 39 42 43 44 47 48 49 46 45 555 91 92 93 90 87 86 85 84 51 50 52 54 53 55 56 83 82 57 58 59 60 61 81 80 79 78 62 63 64 76 75 73 74 77 88 89 94 97 95 96 98 99 552 553 554 556 557 558 559 550 551 101 100 102 103 547 546 545 544 543 541 542 104 105 106 118 119 120 121 122 123 71 72 65 66 67 68 70 69 124 125 138 137 132 133 134 135 136 139 140 141 144 143 142 151 150 149 152 148 147 146 145 158 157 153 154 155 156 159 160 161 112 113 131 130 129 128 127 126 117 116 115 114 111 110 107 109 108 173 174 175 172 170 171 169 168 162 163 167 166 164 165 203 204 202 201 200 199 198 205 206 207 208 209 210 211 212 213 214 215 216 217 223 224 222 221 220 218 219 193 194 195 196 197 184 185 183 181 180 179 182 186 227 189 190 192 191 226 225 228 229 230 231 233 232 234 235 236 237 240 239 238 246 247 245 244 243 242 241 248 249 250 251 252 254 253 255 256 257 300 258 259 260 261 262 299 298 265 263 264 266 267 271 268 270 269 272 273 274 275 290 289 288 276 277 278 279 282 281 280 287 286 285 284 283 334 335 336 337 338 339 341 340 333 332 331 330 291 292 293 294 295 296 297 324 325 329 328 327 326 323 322 373 372 371 396 395 394 393 391 392 390 389 388 387 386 382 383 384 385 409 408 406 405 404 400 399 407 397 398 370 369 368 365 367 366 342 343 344 345 346 364 363 362 347 348 349 350 351 415 416 414 413 352 353 354 355 357 358 359 361 360 401 403 402 356 412 411 410 418 417 419 420 421 422 423 424 425 426 427 428 429 430 437 438 436 435 434 433 432 431 381 380 379 378 377 376 375 374 315 314 316 313 312 451 311 310 309 308 307 305 318 317 321 320 319 306 304 303 301 302 508 507 506 505 504 503 502 498 501 500 499 452 453 440 441 450 449 448 447 446 445 444 443 442 439 454 455 456 457 458 459 461 462 463 464 465 496 497 519 518 495 494 524 525 493 492 491 526 523 522 521 520 517 514 515 516 509 510 511 513 512 527 528 529 530 531